29 29
24
3 3   22 10
3 4   11 7 
5 3   21 22
6 3   18 4 
3 7   8 4 
8 3   15 18
3 9   20 13
10 3   14 13
11 3   14 15
15 3   14 7 
18 3   11 26
3 20  25 0 
4 3   18 8 
4 4   19 15
5 4   18 14
4 6   24 16
4 7   11 0 
4 9   24 1 
4 15  14 6 
4 18  8 11
20 4   3 0 
5 4   18 7 
5 8   14 11
17 5   0 24
